NAME : traveling-santa-2018-prime-paths.29260.tour
COMMENT : Length = 29260
COMMENT : Found by LKH [Keld Helsgaun] Sun Jun 12 19:59:27 2022
TYPE : TOUR
DIMENSION : 100
TOUR_SECTION
1
20
16
62
18
81
95
63
11
38
28
59
75
51
86
15
3
52
67
40
24
26
17
4
80
98
45
47
69
50
74
37
66
87
90
57
89
53
48
36
5
91
30
23
22
99
44
76
88
94
2
77
29
14
82
42
79
13
21
97
43
12
27
6
85
55
33
32
25
39
7
100
72
61
19
96
92
8
73
64
35
83
54
84
70
71
9
31
93
60
41
46
68
78
65
10
56
34
58
49
-1
EOF
